#######################
Slurm job id: 17497813_156
Running on machine: p16
Running cmd: /nfs/shared/static-builds/gurobi1003 SOFTMEMLIMIT=125 MIPFocus=2 Presolve=2 TimeLimit=300 seed=5 /nfs/models/miplib2010/k16x240.mps.bz2
#######################
Set parameter TimeLimit to value 300
Set parameter SoftMemLimit to value 125
Set parameter MIPFocus to value 2
Set parameter LogFile to value 1003-MIPFocus2-Presolve2-TimeLimit300-k16x240-5.log
Set parameter Presolve to value 2
Set parameter Seed to value 5
Using license file /opt/gurobi/gurobi.lic

Gurobi Optimizer version 10.0.3 build v10.0.3rc0 (linux64)
Copyright (c) 2023, Gurobi Optimization, LLC

Read MPS format model from file /nfs/models/miplib2010/k16x240.mps.bz2
Reading time = 0.00 seconds
k16x240: 256 rows, 480 columns, 960 nonzeros

CPU model: Intel(R) Xeon(R) E-2388G CPU @ 3.20GHz, instruction set [SSE2|AVX|AVX2|AVX512]
Thread count: 8 physical cores, 16 logical processors, using up to 16 threads

Optimize a model with 256 rows, 480 columns and 960 nonzeros
Model fingerprint: 0x4e80885f
Variable types: 240 continuous, 240 integer (240 binary)
Coefficient statistics:
  Matrix range     [1e+00, 1e+03]
  Objective range  [1e+00, 1e+03]
  Bounds range     [1e+00, 1e+03]
  RHS range        [4e+00, 4e+02]
Found heuristic solution: objective 27987.000000
Presolve time: 0.00s
Presolved: 256 rows, 480 columns, 960 nonzeros
Variable types: 240 continuous, 240 integer (240 binary)
Root relaxation presolve removed 241 rows and 240 columns
Root relaxation presolved: 15 rows, 240 columns, 450 nonzeros


Root relaxation: objective 2.769838e+03, 16 iterations, 0.00 seconds (0.00 work units)

    Nodes    |    Current Node    |     Objective Bounds      |     Work
 Expl Unexpl |  Obj  Depth IntInf | Incumbent    BestBd   Gap | It/Node Time

     0     0 2769.83800    0   14 27987.0000 2769.83800  90.1%     -    0s
H    0     0                    11359.000000 2769.83800  75.6%     -    0s
H    0     0                    11183.000000 8116.87580  27.4%     -    0s
H    0     0                    11174.000000 8116.87580  27.4%     -    0s
     0     0 8116.87580    0   26 11174.0000 8116.87580  27.4%     -    0s
H    0     0                    11077.000000 8116.87580  26.7%     -    0s
     0     0 8571.49855    0   28 11077.0000 8571.49855  22.6%     -    0s
     0     0 8595.10166    0   26 11077.0000 8595.10166  22.4%     -    0s
H    0     0                    11036.000000 8595.10166  22.1%     -    0s
     0     0 8727.63179    0   22 11036.0000 8727.63179  20.9%     -    0s
H    0     0                    10917.000000 8727.63179  20.1%     -    0s
H    0     0                    10807.000000 8787.11384  18.7%     -    0s
     0     0 8787.11384    0   20 10807.0000 8787.11384  18.7%     -    0s
     0     0 8815.58274    0   36 10807.0000 8815.58274  18.4%     -    0s
H    0     0                    10792.000000 8819.37917  18.3%     -    0s
     0     0 8819.37917    0   35 10792.0000 8819.37917  18.3%     -    0s
H    0     0                    10783.000000 8819.37917  18.2%     -    0s
     0     0 8959.49686    0   35 10783.0000 8959.49686  16.9%     -    0s
     0     0 8984.82895    0   41 10783.0000 8984.82895  16.7%     -    0s
     0     0 9025.25105    0   46 10783.0000 9025.25105  16.3%     -    0s
     0     0 9032.57690    0   46 10783.0000 9032.57690  16.2%     -    0s
     0     0 9110.52978    0   32 10783.0000 9110.52978  15.5%     -    0s
     0     0 9113.41600    0   37 10783.0000 9113.41600  15.5%     -    0s
     0     0 9142.31360    0   35 10783.0000 9142.31360  15.2%     -    0s
     0     0 9142.31360    0   35 10783.0000 9142.31360  15.2%     -    0s
     0     2 9142.31360    0   35 10783.0000 9142.31360  15.2%     -    0s
H   32    40                    10678.000000 9293.11775  13.0%  71.4    0s
H  126   137                    10674.000000 9293.11775  12.9%  44.3    0s
 27647 10476 10246.2838   31   19 10674.0000 10030.2015  6.03%  24.1    5s
 66160 15950 10575.7353   39    4 10674.0000 10228.0678  4.18%  25.2   10s
 108457 14999 10531.5976   32   13 10674.0000 10381.2087  2.74%  25.3   15s

Cutting planes:
  Gomory: 5
  Lift-and-project: 13
  Cover: 87
  Implied bound: 16
  MIR: 157
  Flow cover: 294
  Flow path: 50
  Inf proof: 2
  Zero half: 13
  Network: 45
  Relax-and-lift: 1

Explored 148377 nodes (3605769 simplex iterations) in 19.78 seconds (33.93 work units)
Thread count was 16 (of 16 available processors)

Solution count 10: 10674 10678 10783 ... 11183

Optimal solution found (tolerance 1.00e-04)
Best objective 1.067400000000e+04, best bound 1.067400000000e+04, gap 0.0000%
